NAME : LC2_6_2
TYPE : PDPTW
DIMENSION : 150
EDGE_WEIGHT_TYPE : EXACT_2D
NODE_COORD_SECTION
1 1 0
2 150 0
3 0 0
4 -10 2075
5 0 2
6 1971 2131
7 3 122
8 3408 90
9 165 85
10 90 422
11 198 20
12 0 184
13 -30 0
14 0 7
15 1247 1407
16 8 58
17 3604 90
18 243 35
19 90 542
20 45 20
21 0 594
22 30 0
23 158 12
24 1175 1335
25 13 279
26 798 90
27 97 40
28 90 0
29 52 20
30 0 371
31 20 3148
32 328 17
33 1844 2004
34 18 64
35 789 90
36 141 231
37 90 419
38 211 -20
39 508 0
40 20 863
41 78 22
42 3190 3350
43 23 66
44 3071 0
45 83 219
46 90 0
47 210 20
48 0 132
49 20 0
50 435 27
51 1105 1265
52 28 165
53 3550 90
54 117 262
55 90 0
56 49 -30
57 267 0
58 10 645
59 455 32
60 2344 2504
61 33 182
62 3637 90
63 239 181
64 90 0
65 114 -10
66 559 0
67 20 1726
68 595 37
69 0 3644
70 38 142
71 1301 90
72 102 51
73 90 0
74 62 10
75 0 534
76 -10 2980
77 0 42
78 1874 2034
79 43 244
80 2639 90
81 125 23
82 90 195
83 23 -20
84 93 0
85 20 320
86 494 47
87 1793 1953
88 48 262
89 3571 90
90 75 28
91 90 566
92 63 -20
93 349 0
94 -10 0
95 0 52
96 443 603
97 53 179
98 2773 90
99 154 257
100 90 0
101 38 10
102 0 156
103 20 465
104 42 57
105 3149 3309
106 58 28
107 397 90
108 25 150
109 90 433
110 32 10
111 0 390
112 10 983
113 524 62
114 0 3572
115 63 186
116 229 90
117 252 60
118 90 0
119 10 -50
120 134 0
121 -10 0
122 0 67
123 658 818
124 68 101
125 2537 90
126 103 35
127 90 576
128 244 20
129 0 3
130 -40 0
131 0 72
132 2750 2910
133 73 74
134 2296 90
135 222 160
136 90 0
137 163 -20
138 88 0
139 -30 2671
140 0 77
141 2569 2729
142 78 17
143 3592 90
144 203 200
145 90 0
146 137 10
147 0 418
148 -10 0
149 0 82
150 0 3604
PICKUP_AND_DELIVERY_SECTION
1 0 0 0 0 0 0
2 0 0 0 0 3815 0
3 0 0 0 0 0 248
4 0 0 0 0 90 90
5 0 0 0 0 221 221
6 0 0 0 0 0 0
7 0 0 0 0 -20 -20
8 0 0 0 0 0 0
9 0 0 0 0 0 0
10 0 0 0 0 5 0
11 0 0 0 0 970 970
12 0 0 0 0 55 55
13 0 0 0 0 90 90
14 0 0 0 0 70 70
15 0 0 0 0 38 38
16 0 0 0 0 -40 -40
17 0 0 0 0 0 0
18 0 0 0 0 0 0
19 0 0 0 0 10 0
20 0 0 0 0 579 579
21 0 0 0 0 30 30
22 0 0 0 0 90 90
23 0 0 0 0 27 27
24 0 0 0 0 87 87
25 0 0 0 0 10 10
26 0 0 0 0 402 0
27 0 0 0 0 514 514
28 0 0 0 0 15 15
29 0 0 0 0 3561 0
30 0 0 0 0 226 226
31 0 0 0 0 90 90
32 0 0 0 0 21 21
33 0 0 0 0 498 498
34 0 0 0 0 -10 -10
35 0 0 0 0 0 0
36 0 0 0 0 0 0
37 0 0 0 0 20 0
38 0 0 0 0 3163 3163
39 0 0 0 0 50 50
40 0 0 0 0 90 90
41 0 0 0 0 178 178
42 0 0 0 0 564 564
43 0 0 0 0 10 10
44 0 0 0 0 603 0
45 0 0 0 0 106 106
46 0 0 0 0 25 25
47 0 0 0 0 220 220
48 0 0 0 0 173 173
49 0 0 0 0 90 90
50 0 0 0 0 180 180
51 0 0 0 0 0 0
52 0 0 0 0 -20 -20
53 0 0 0 0 0 0
54 0 0 0 0 2289 2289
55 0 0 0 0 30 30
56 0 0 0 0 1638 1638
57 0 0 0 0 176 176
58 0 0 0 0 90 90
59 0 0 0 0 46 46
60 0 0 0 0 0 0
61 0 0 0 0 20 20
62 0 0 0 0 446 0
63 0 0 0 0 94 94
64 0 0 0 0 35 35
65 0 0 0 0 700 700
66 0 0 0 0 34 34
67 0 0 0 0 90 90
68 0 0 0 0 231 231
69 0 0 0 0 560 560
70 0 0 0 0 20 20
71 0 0 0 0 7 0
72 0 0 0 0 110 110
73 0 0 0 0 40 40
74 0 0 0 0 580 580
75 0 0 0 0 261 261
76 0 0 0 0 90 90
77 0 0 0 0 146 146
78 0 0 0 0 56 56
79 0 0 0 0 -20 -20
80 0 0 0 0 0 0
81 0 0 0 0 2296 2296
82 0 0 0 0 45 0
83 0 0 0 0 3521 3521
84 0 0 0 0 92 92
85 0 0 0 0 90 90
86 0 0 0 0 272 272
87 0 0 0 0 471 471
88 0 0 0 0 20 20
89 0 0 0 0 286 0
90 0 0 0 0 1373 1373
91 0 0 0 0 50 0
92 0 0 0 0 3634 0
93 0 0 0 0 224 224
94 0 0 0 0 90 90
95 0 0 0 0 116 116
96 0 0 0 0 0 0
97 0 0 0 0 -20 -20
98 0 0 0 0 0 0
99 0 0 0 0 0 0
100 0 0 0 0 55 55
101 0 0 0 0 2712 2712
102 0 0 0 0 83 83
103 0 0 0 0 90 90
104 0 0 0 0 201 201
105 0 0 0 0 416 416
106 0 0 0 0 -20 -20
107 0 0 0 0 0 0
108 0 0 0 0 1491 1491
109 0 0 0 0 60 0
110 0 0 0 0 3563 0
111 0 0 0 0 67 67
112 0 0 0 0 90 90
113 0 0 0 0 50 50
114 0 0 0 0 155 155
115 0 0 0 0 10 10
116 0 0 0 0 255 0
117 0 0 0 0 620 620
118 0 0 0 0 65 65
119 0 0 0 0 2126 2126
120 0 0 0 0 239 239
121 0 0 0 0 90 90
122 0 0 0 0 102 102
123 0 0 0 0 0 0
124 0 0 0 0 -30 -30
125 0 0 0 0 0 0
126 0 0 0 0 0 0
127 0 0 0 0 70 0
128 0 0 0 0 1029 1029
129 0 0 0 0 231 231
130 0 0 0 0 90 90
131 0 0 0 0 114 114
132 0 0 0 0 580 580
133 0 0 0 0 40 40
134 0 0 0 0 503 0
135 0 0 0 0 856 856
136 0 0 0 0 75 75
137 0 0 0 0 3202 3202
138 0 0 0 0 125 125
139 0 0 0 0 90 90
140 0 0 0 0 203 203
141 0 0 0 0 126 126
142 0 0 0 0 -20 -20
143 0 0 0 0 0 0
144 0 0 0 0 0 0
145 0 0 0 0 80 80
146 0 0 0 0 595 595
147 0 0 0 0 263 263
148 0 0 0 0 90 90
149 0 0 0 0 137 137
150 0 0 0 0 0 0
DEPOT_SECTION
1 
-1
EOF
